
Log started (V11.0.0) Sat May 17 01:40:43 2008

Tried aggregator 1 time.
Reduced MIP has 510 rows, 5001 columns, and 10010 nonzeros.
Presolve time =    0.03 sec.
Clique table members: 500.
MIP emphasis: balance optimality and feasibility.
MIP search method: dynamic search.
Parallel mode: none, using 1 thread.
Root relaxation solution time =    0.17 sec.

        Nodes                                         Cuts/
   Node  Left     Objective  IInf  Best Integer     Best Node    ItCnt     Gap

*     0+    0                        55222.0000     5078.9000      608   90.80%
*     0+    0                         5101.0000     5078.9000      608    0.43%
      0     0     5079.0000    20     5101.0000      Fract: 7      628    0.43%
*     0+    0                         5094.0000     5079.0000      628    0.29%
      0     0     5079.0000    20     5094.0000     Covers: 1      690    0.29%
      0     0     5079.0000    22     5094.0000     Covers: 3      702    0.29%
*     0+    0                         5091.0000     5079.0000      702    0.24%
*     0+    0                         5088.0000     5079.0000      702    0.18%
      0     2     5079.0000    22     5088.0000     5079.0000      702    0.18%
    100    88     5081.0000    17     5088.0000     5079.0000     3666    0.18%
*   200+  158                         5086.0000     5079.0000    10932    0.14%
    200   160     5082.0000    19     5086.0000     5079.0000    10932    0.14%
    300   245     5083.0095    19     5086.0000     5079.0000    17183    0.14%
    400   309     5085.0000    19     5086.0000     5079.0000    25269    0.14%
    500   378     5080.0000    16     5086.0000     5079.0000    30757    0.14%
*   531+  348                         5085.0000     5079.0000    31448    0.12%
    600   375     5081.0000    18     5085.0000     5080.0000    33915    0.10%
*   633+  276                         5084.0000     5080.0000    34571    0.08%
*   633+  199                         5082.0000     5080.0000    34571    0.04%
    700   212     5081.0000    10     5082.0000     5080.0000    35903    0.04%
*   733+  101                         5081.0000     5080.0000    38058    0.02%
    800    67    infeasible           5081.0000     5080.0000    46557    0.02%
    900   132     5080.0000    10     5081.0000     5080.0000    50917    0.02%
*   933+    2                         5080.0000     5080.0000    52109    0.00%

Cover cuts applied:  60
Mixed integer rounding cuts applied:  3
Gomory fractional cuts applied:  2

Solution pool: 11 solutions saved.

MIP - Integer optimal solution:  Objective = 5.0800000000e+003
Solution time =   29.22 sec.  Iterations = 52109  Nodes = 933


Incumbent solution
Variable Name           Solution Value
Cmax                       5080.000000
X_1_1                         1.000000
X_2_9                         1.000000
X_3_4                         1.000000
X_4_4                         1.000000
X_5_7                         1.000000
X_6_5                         1.000000
X_7_8                         1.000000
X_8_2                         1.000000
X_9_1                         1.000000
X_10_8                        1.000000
X_11_2                        1.000000
X_12_9                        1.000000
X_13_5                        1.000000
X_14_5                        1.000000
X_15_1                        1.000000
X_16_10                       1.000000
X_17_7                        1.000000
X_18_5                        1.000000
X_19_8                        1.000000
X_20_3                        1.000000
X_21_6                        1.000000
X_22_9                        1.000000
X_23_6                        1.000000
X_24_1                        1.000000
X_25_10                       1.000000
X_26_3                        1.000000
X_27_9                        1.000000
X_28_1                        1.000000
X_29_2                        1.000000
X_30_7                        1.000000
X_31_3                        1.000000
X_32_1                        1.000000
X_33_1                        1.000000
X_34_1                        1.000000
X_35_8                        1.000000
X_36_5                        1.000000
X_37_7                        1.000000
X_38_5                        1.000000
X_39_2                        1.000000
X_40_4                        1.000000
X_41_3                        1.000000
X_42_5                        1.000000
X_43_2                        1.000000
X_44_8                        1.000000
X_45_3                        1.000000
X_46_5                        1.000000
X_47_8                        1.000000
X_48_1                        1.000000
X_49_3                        1.000000
X_50_4                        1.000000
X_51_4                        1.000000
X_52_8                        1.000000
X_53_9                        1.000000
X_54_2                        1.000000
X_55_7                        1.000000
X_56_5                        1.000000
X_57_10                       1.000000
X_58_7                        1.000000
X_59_8                        1.000000
X_60_1                        1.000000
X_61_6                        1.000000
X_62_5                        1.000000
X_63_6                        1.000000
X_64_8                        1.000000
X_65_8                        1.000000
X_66_8                        1.000000
X_67_9                        1.000000
X_68_4                        1.000000
X_69_6                        1.000000
X_70_4                        1.000000
X_71_4                        1.000000
X_72_8                        1.000000
X_73_10                       1.000000
X_74_3                        1.000000
X_75_8                        1.000000
X_76_6                        1.000000
X_77_9                        1.000000
X_78_2                        1.000000
X_79_8                        1.000000
X_80_1                        1.000000
X_81_2                        1.000000
X_82_3                        1.000000
X_83_7                        1.000000
X_84_4                        1.000000
X_85_2                        1.000000
X_86_10                       1.000000
X_87_8                        1.000000
X_88_4                        1.000000
X_89_1                        1.000000
X_90_1                        1.000000
X_91_4                        1.000000
X_92_10                       1.000000
X_93_1                        1.000000
X_94_9                        1.000000
X_95_8                        1.000000
X_96_2                        1.000000
X_97_5                        1.000000
X_98_4                        1.000000
X_99_2                        1.000000
X_100_2                       1.000000
X_101_10                      1.000000
X_102_10                      1.000000
X_103_3                       1.000000
X_104_1                       1.000000
X_105_9                       1.000000
X_106_10                      1.000000
X_107_9                       1.000000
X_108_10                      1.000000
X_109_9                       1.000000
X_110_3                       1.000000
X_111_6                       1.000000
X_112_7                       1.000000
X_113_3                       1.000000
X_114_1                       1.000000
X_115_9                       1.000000
X_116_5                       1.000000
X_117_6                       1.000000
X_118_3                       1.000000
X_119_8                       1.000000
X_120_1                       1.000000
X_121_1                       1.000000
X_122_9                       1.000000
X_123_8                       1.000000
X_124_2                       1.000000
X_125_5                       1.000000
X_126_3                       1.000000
X_127_6                       1.000000
X_128_9                       1.000000
X_129_5                       1.000000
X_130_4                       1.000000
X_131_2                       1.000000
X_132_9                       1.000000
X_133_4                       1.000000
X_134_3                       1.000000
X_135_9                       1.000000
X_136_7                       1.000000
X_137_10                      1.000000
X_138_4                       1.000000
X_139_8                       1.000000
X_140_6                       1.000000
X_141_3                       1.000000
X_142_4                       1.000000
X_143_10                      1.000000
X_144_10                      1.000000
X_145_2                       1.000000
X_146_6                       1.000000
X_147_9                       1.000000
X_148_8                       1.000000
X_149_7                       1.000000
X_150_5                       1.000000
X_151_2                       1.000000
X_152_7                       1.000000
X_153_1                       1.000000
X_154_2                       1.000000
X_155_4                       1.000000
X_156_10                      1.000000
X_157_10                      1.000000
X_158_4                       1.000000
X_159_3                       1.000000
X_160_4                       1.000000
X_161_5                       1.000000
X_162_5                       1.000000
X_163_9                       1.000000
X_164_1                       1.000000
X_165_2                       1.000000
X_166_8                       1.000000
X_167_8                       1.000000
X_168_6                       1.000000
X_169_6                       1.000000
X_170_9                       1.000000
X_171_7                       1.000000
X_172_6                       1.000000
X_173_10                      1.000000
X_174_2                       1.000000
X_175_5                       1.000000
X_176_9                       1.000000
X_177_4                       1.000000
X_178_3                       1.000000
X_179_3                       1.000000
X_180_6                       1.000000
X_181_8                       1.000000
X_182_8                       1.000000
X_183_8                       1.000000
X_184_9                       1.000000
X_185_4                       1.000000
X_186_7                       1.000000
X_187_10                      1.000000
X_188_5                       1.000000
X_189_4                       1.000000
X_190_2                       1.000000
X_191_9                       1.000000
X_192_6                       1.000000
X_193_5                       1.000000
X_194_3                       1.000000
X_195_7                       1.000000
X_196_4                       1.000000
X_197_10                      1.000000
X_198_10                      1.000000
X_199_5                       1.000000
X_200_2                       1.000000
X_201_1                       1.000000
X_202_9                       1.000000
X_203_8                       1.000000
X_204_8                       1.000000
X_205_1                       1.000000
X_206_5                       1.000000
X_207_7                       1.000000
X_208_5                       1.000000
X_209_10                      1.000000
X_210_2                       1.000000
X_211_1                       1.000000
X_212_10                      1.000000
X_213_2                       1.000000
X_214_5                       1.000000
X_215_9                       1.000000
X_216_6                       1.000000
X_217_1                       1.000000
X_218_8                       1.000000
X_219_1                       1.000000
X_220_2                       1.000000
X_221_1                       1.000000
X_222_7                       1.000000
X_223_6                       1.000000
X_224_6                       1.000000
X_225_3                       1.000000
X_226_9                       1.000000
X_227_1                       1.000000
X_228_8                       1.000000
X_229_8                       1.000000
X_230_1                       1.000000
X_231_9                       1.000000
X_232_3                       1.000000
X_233_3                       1.000000
X_234_7                       1.000000
X_235_8                       1.000000
X_236_8                       1.000000
X_237_10                      1.000000
X_238_7                       1.000000
X_239_4                       1.000000
X_240_10                      1.000000
X_241_6                       1.000000
X_242_5                       1.000000
X_243_2                       1.000000
X_244_10                      1.000000
X_245_4                       1.000000
X_246_5                       1.000000
X_247_6                       1.000000
X_248_6                       1.000000
X_249_8                       1.000000
X_250_8                       1.000000
X_251_7                       1.000000
X_252_5                       1.000000
X_253_7                       1.000000
X_254_9                       1.000000
X_255_5                       1.000000
X_256_7                       1.000000
X_257_6                       1.000000
X_258_4                       1.000000
X_259_8                       1.000000
X_260_7                       1.000000
X_261_5                       1.000000
X_262_1                       1.000000
X_263_3                       1.000000
X_264_7                       1.000000
X_265_8                       1.000000
X_266_7                       1.000000
X_267_9                       1.000000
X_268_4                       1.000000
X_269_10                      1.000000
X_270_10                      1.000000
X_271_2                       1.000000
X_272_10                      1.000000
X_273_4                       1.000000
X_274_9                       1.000000
X_275_3                       1.000000
X_276_10                      1.000000
X_277_5                       1.000000
X_278_6                       1.000000
X_279_3                       1.000000
X_280_5                       1.000000
X_281_8                       1.000000
X_282_3                       1.000000
X_283_4                       1.000000
X_284_6                       1.000000
X_285_1                       1.000000
X_286_2                       1.000000
X_287_5                       1.000000
X_288_7                       1.000000
X_289_6                       1.000000
X_290_9                       1.000000
X_291_9                       1.000000
X_292_2                       1.000000
X_293_1                       1.000000
X_294_5                       1.000000
X_295_3                       1.000000
X_296_4                       1.000000
X_297_3                       1.000000
X_298_3                       1.000000
X_299_5                       1.000000
X_300_2                       1.000000
X_301_7                       1.000000
X_302_2                       1.000000
X_303_2                       1.000000
X_304_5                       1.000000
X_305_4                       1.000000
X_306_6                       1.000000
X_307_2                       1.000000
X_308_9                       1.000000
X_309_3                       1.000000
X_310_9                       1.000000
X_311_4                       1.000000
X_312_2                       1.000000
X_313_6                       1.000000
X_314_3                       1.000000
X_315_6                       1.000000
X_316_2                       1.000000
X_317_4                       1.000000
X_318_1                       1.000000
X_319_10                      1.000000
X_320_4                       1.000000
X_321_8                       1.000000
X_322_5                       1.000000
X_323_10                      1.000000
X_324_3                       1.000000
X_325_6                       1.000000
X_326_2                       1.000000
X_327_7                       1.000000
X_328_8                       1.000000
X_329_4                       1.000000
X_330_10                      1.000000
X_331_7                       1.000000
X_332_7                       1.000000
X_333_3                       1.000000
X_334_10                      1.000000
X_335_9                       1.000000
X_336_4                       1.000000
X_337_3                       1.000000
X_338_9                       1.000000
X_339_4                       1.000000
X_340_9                       1.000000
X_341_1                       1.000000
X_342_2                       1.000000
X_343_6                       1.000000
X_344_9                       1.000000
X_345_8                       1.000000
X_346_10                      1.000000
X_347_1                       1.000000
X_348_8                       1.000000
X_349_7                       1.000000
X_350_4                       1.000000
X_351_1                       1.000000
X_352_10                      1.000000
X_353_1                       1.000000
X_354_5                       1.000000
X_355_7                       1.000000
X_356_7                       1.000000
X_357_2                       1.000000
X_358_3                       1.000000
X_359_6                       1.000000
X_360_7                       1.000000
X_361_5                       1.000000
X_362_2                       1.000000
X_363_6                       1.000000
X_364_1                       1.000000
X_365_3                       1.000000
X_366_1                       1.000000
X_367_9                       1.000000
X_368_2                       1.000000
X_369_9                       1.000000
X_370_5                       1.000000
X_371_8                       1.000000
X_372_2                       1.000000
X_373_6                       1.000000
X_374_2                       1.000000
X_375_5                       1.000000
X_376_1                       1.000000
X_377_6                       1.000000
X_378_4                       1.000000
X_379_7                       1.000000
X_380_7                       1.000000
X_381_10                      1.000000
X_382_3                       1.000000
X_383_1                       1.000000
X_384_7                       1.000000
X_385_6                       1.000000
X_386_10                      1.000000
X_387_7                       1.000000
X_388_5                       1.000000
X_389_8                       1.000000
X_390_4                       1.000000
X_391_3                       1.000000
X_392_6                       1.000000
X_393_7                       1.000000
X_394_5                       1.000000
X_395_3                       1.000000
X_396_1                       1.000000
X_397_1                       1.000000
X_398_3                       1.000000
X_399_8                       1.000000
X_400_9                       1.000000
X_401_6                       1.000000
X_402_2                       1.000000
X_403_8                       1.000000
X_404_6                       1.000000
X_405_9                       1.000000
X_406_10                      1.000000
X_407_9                       1.000000
X_408_2                       1.000000
X_409_5                       1.000000
X_410_1                       1.000000
X_411_10                      1.000000
X_412_4                       1.000000
X_413_10                      1.000000
X_414_5                       1.000000
X_415_2                       1.000000
X_416_3                       1.000000
X_417_10                      1.000000
X_418_9                       1.000000
X_419_5                       1.000000
X_420_8                       1.000000
X_421_3                       1.000000
X_422_6                       1.000000
X_423_10                      1.000000
X_424_10                      1.000000
X_425_7                       1.000000
X_426_9                       1.000000
X_427_9                       1.000000
X_428_2                       1.000000
X_429_5                       1.000000
X_430_4                       1.000000
X_431_6                       1.000000
X_432_6                       1.000000
X_433_10                      1.000000
X_434_3                       1.000000
X_435_6                       1.000000
X_436_4                       1.000000
X_437_7                       1.000000
X_438_6                       1.000000
X_439_10                      1.000000
X_440_9                       1.000000
X_441_10                      1.000000
X_442_5                       1.000000
X_443_3                       1.000000
X_444_9                       1.000000
X_445_1                       1.000000
X_446_1                       1.000000
X_447_7                       1.000000
X_448_4                       1.000000
X_449_2                       1.000000
X_450_2                       1.000000
X_451_7                       1.000000
X_452_8                       1.000000
X_453_1                       1.000000
X_454_3                       1.000000
X_455_5                       1.000000
X_456_10                      1.000000
X_457_7                       1.000000
X_458_3                       1.000000
X_459_8                       1.000000
X_460_4                       1.000000
X_461_4                       1.000000
X_462_1                       1.000000
X_463_2                       1.000000
X_464_1                       1.000000
X_465_9                       1.000000
X_466_5                       1.000000
X_467_6                       1.000000
X_468_4                       1.000000
X_469_6                       1.000000
X_470_1                       1.000000
X_471_2                       1.000000
X_472_6                       1.000000
X_473_2                       1.000000
X_474_3                       1.000000
X_475_9                       1.000000
X_476_10                      1.000000
X_477_7                       1.000000
X_478_3                       1.000000
X_479_7                       1.000000
X_480_8                       1.000000
X_481_4                       1.000000
X_482_7                       1.000000
X_483_7                       1.000000
X_484_7                       1.000000
X_485_3                       1.000000
X_486_10                      1.000000
X_487_6                       1.000000
X_488_6                       1.000000
X_489_10                      1.000000
X_490_5                       1.000000
X_491_3                       1.000000
X_492_7                       1.000000
X_493_9                       1.000000
X_494_6                       1.000000
X_495_4                       1.000000
X_496_7                       1.000000
X_497_1                       1.000000
X_498_8                       1.000000
X_499_10                      1.000000
X_500_4                       1.000000
All other variables in the range 1-5001 are 0.
